c File: flat150_3_0.col
c
c SOURCE: Joseph Culberson (joe@cs.ualberta.ca)
c DESCRIPTION: Quasi-random coloring problem
c              generated with flatness = 0
c                             probability = 0.048
c                             known coloring = 3
c                             random seed = 1052
c              Creation Date:  Wed Feb 24 10:37:33 1999
c Maximum degree = 8 Minimum degree = 1
c COLOR VERIFICATION: Using the permuted order
c under simple greedy yields the specified
c coloring number
c Color = 3 specified partitions = 3
c p edge 150 360
c cnf created by edge2cnf
p cnf 450 1680
-1 -2 0
-1 -3 0
-2 -3 0
1 2 3 0
-4 -5 0
-4 -6 0
-5 -6 0
4 5 6 0
-7 -8 0
-7 -9 0
-8 -9 0
7 8 9 0
-10 -11 0
-10 -12 0
-11 -12 0
10 11 12 0
-13 -14 0
-13 -15 0
-14 -15 0
13 14 15 0
-16 -17 0
-16 -18 0
-17 -18 0
16 17 18 0
-19 -20 0
-19 -21 0
-20 -21 0
19 20 21 0
-22 -23 0
-22 -24 0
-23 -24 0
22 23 24 0
-25 -26 0
-25 -27 0
-26 -27 0
25 26 27 0
-28 -29 0
-28 -30 0
-29 -30 0
28 29 30 0
-31 -32 0
-31 -33 0
-32 -33 0
31 32 33 0
-34 -35 0
-34 -36 0
-35 -36 0
34 35 36 0
-37 -38 0
-37 -39 0
-38 -39 0
37 38 39 0
-40 -41 0
-40 -42 0
-41 -42 0
40 41 42 0
-43 -44 0
-43 -45 0
-44 -45 0
43 44 45 0
-46 -47 0
-46 -48 0
-47 -48 0
46 47 48 0
-49 -50 0
-49 -51 0
-50 -51 0
49 50 51 0
-52 -53 0
-52 -54 0
-53 -54 0
52 53 54 0
-55 -56 0
-55 -57 0
-56 -57 0
55 56 57 0
-58 -59 0
-58 -60 0
-59 -60 0
58 59 60 0
-61 -62 0
-61 -63 0
-62 -63 0
61 62 63 0
-64 -65 0
-64 -66 0
-65 -66 0
64 65 66 0
-67 -68 0
-67 -69 0
-68 -69 0
67 68 69 0
-70 -71 0
-70 -72 0
-71 -72 0
70 71 72 0
-73 -74 0
-73 -75 0
-74 -75 0
73 74 75 0
-76 -77 0
-76 -78 0
-77 -78 0
76 77 78 0
-79 -80 0
-79 -81 0
-80 -81 0
79 80 81 0
-82 -83 0
-82 -84 0
-83 -84 0
82 83 84 0
-85 -86 0
-85 -87 0
-86 -87 0
85 86 87 0
-88 -89 0
-88 -90 0
-89 -90 0
88 89 90 0
-91 -92 0
-91 -93 0
-92 -93 0
91 92 93 0
-94 -95 0
-94 -96 0
-95 -96 0
94 95 96 0
-97 -98 0
-97 -99 0
-98 -99 0
97 98 99 0
-100 -101 0
-100 -102 0
-101 -102 0
100 101 102 0
-103 -104 0
-103 -105 0
-104 -105 0
103 104 105 0
-106 -107 0
-106 -108 0
-107 -108 0
106 107 108 0
-109 -110 0
-109 -111 0
-110 -111 0
109 110 111 0
-112 -113 0
-112 -114 0
-113 -114 0
112 113 114 0
-115 -116 0
-115 -117 0
-116 -117 0
115 116 117 0
-118 -119 0
-118 -120 0
-119 -120 0
118 119 120 0
-121 -122 0
-121 -123 0
-122 -123 0
121 122 123 0
-124 -125 0
-124 -126 0
-125 -126 0
124 125 126 0
-127 -128 0
-127 -129 0
-128 -129 0
127 128 129 0
-130 -131 0
-130 -132 0
-131 -132 0
130 131 132 0
-133 -134 0
-133 -135 0
-134 -135 0
133 134 135 0
-136 -137 0
-136 -138 0
-137 -138 0
136 137 138 0
-139 -140 0
-139 -141 0
-140 -141 0
139 140 141 0
-142 -143 0
-142 -144 0
-143 -144 0
142 143 144 0
-145 -146 0
-145 -147 0
-146 -147 0
145 146 147 0
-148 -149 0
-148 -150 0
-149 -150 0
148 149 150 0
-151 -152 0
-151 -153 0
-152 -153 0
151 152 153 0
-154 -155 0
-154 -156 0
-155 -156 0
154 155 156 0
-157 -158 0
-157 -159 0
-158 -159 0
157 158 159 0
-160 -161 0
-160 -162 0
-161 -162 0
160 161 162 0
-163 -164 0
-163 -165 0
-164 -165 0
163 164 165 0
-166 -167 0
-166 -168 0
-167 -168 0
166 167 168 0
-169 -170 0
-169 -171 0
-170 -171 0
169 170 171 0
-172 -173 0
-172 -174 0
-173 -174 0
172 173 174 0
-175 -176 0
-175 -177 0
-176 -177 0
175 176 177 0
-178 -179 0
-178 -180 0
-179 -180 0
178 179 180 0
-181 -182 0
-181 -183 0
-182 -183 0
181 182 183 0
-184 -185 0
-184 -186 0
-185 -186 0
184 185 186 0
-187 -188 0
-187 -189 0
-188 -189 0
187 188 189 0
-190 -191 0
-190 -192 0
-191 -192 0
190 191 192 0
-193 -194 0
-193 -195 0
-194 -195 0
193 194 195 0
-196 -197 0
-196 -198 0
-197 -198 0
196 197 198 0
-199 -200 0
-199 -201 0
-200 -201 0
199 200 201 0
-202 -203 0
-202 -204 0
-203 -204 0
202 203 204 0
-205 -206 0
-205 -207 0
-206 -207 0
205 206 207 0
-208 -209 0
-208 -210 0
-209 -210 0
208 209 210 0
-211 -212 0
-211 -213 0
-212 -213 0
211 212 213 0
-214 -215 0
-214 -216 0
-215 -216 0
214 215 216 0
-217 -218 0
-217 -219 0
-218 -219 0
217 218 219 0
-220 -221 0
-220 -222 0
-221 -222 0
220 221 222 0
-223 -224 0
-223 -225 0
-224 -225 0
223 224 225 0
-226 -227 0
-226 -228 0
-227 -228 0
226 227 228 0
-229 -230 0
-229 -231 0
-230 -231 0
229 230 231 0
-232 -233 0
-232 -234 0
-233 -234 0
232 233 234 0
-235 -236 0
-235 -237 0
-236 -237 0
235 236 237 0
-238 -239 0
-238 -240 0
-239 -240 0
238 239 240 0
-241 -242 0
-241 -243 0
-242 -243 0
241 242 243 0
-244 -245 0
-244 -246 0
-245 -246 0
244 245 246 0
-247 -248 0
-247 -249 0
-248 -249 0
247 248 249 0
-250 -251 0
-250 -252 0
-251 -252 0
250 251 252 0
-253 -254 0
-253 -255 0
-254 -255 0
253 254 255 0
-256 -257 0
-256 -258 0
-257 -258 0
256 257 258 0
-259 -260 0
-259 -261 0
-260 -261 0
259 260 261 0
-262 -263 0
-262 -264 0
-263 -264 0
262 263 264 0
-265 -266 0
-265 -267 0
-266 -267 0
265 266 267 0
-268 -269 0
-268 -270 0
-269 -270 0
268 269 270 0
-271 -272 0
-271 -273 0
-272 -273 0
271 272 273 0
-274 -275 0
-274 -276 0
-275 -276 0
274 275 276 0
-277 -278 0
-277 -279 0
-278 -279 0
277 278 279 0
-280 -281 0
-280 -282 0
-281 -282 0
280 281 282 0
-283 -284 0
-283 -285 0
-284 -285 0
283 284 285 0
-286 -287 0
-286 -288 0
-287 -288 0
286 287 288 0
-289 -290 0
-289 -291 0
-290 -291 0
289 290 291 0
-292 -293 0
-292 -294 0
-293 -294 0
292 293 294 0
-295 -296 0
-295 -297 0
-296 -297 0
295 296 297 0
-298 -299 0
-298 -300 0
-299 -300 0
298 299 300 0
-301 -302 0
-301 -303 0
-302 -303 0
301 302 303 0
-304 -305 0
-304 -306 0
-305 -306 0
304 305 306 0
-307 -308 0
-307 -309 0
-308 -309 0
307 308 309 0
-310 -311 0
-310 -312 0
-311 -312 0
310 311 312 0
-313 -314 0
-313 -315 0
-314 -315 0
313 314 315 0
-316 -317 0
-316 -318 0
-317 -318 0
316 317 318 0
-319 -320 0
-319 -321 0
-320 -321 0
319 320 321 0
-322 -323 0
-322 -324 0
-323 -324 0
322 323 324 0
-325 -326 0
-325 -327 0
-326 -327 0
325 326 327 0
-328 -329 0
-328 -330 0
-329 -330 0
328 329 330 0
-331 -332 0
-331 -333 0
-332 -333 0
331 332 333 0
-334 -335 0
-334 -336 0
-335 -336 0
334 335 336 0
-337 -338 0
-337 -339 0
-338 -339 0
337 338 339 0
-340 -341 0
-340 -342 0
-341 -342 0
340 341 342 0
-343 -344 0
-343 -345 0
-344 -345 0
343 344 345 0
-346 -347 0
-346 -348 0
-347 -348 0
346 347 348 0
-349 -350 0
-349 -351 0
-350 -351 0
349 350 351 0
-352 -353 0
-352 -354 0
-353 -354 0
352 353 354 0
-355 -356 0
-355 -357 0
-356 -357 0
355 356 357 0
-358 -359 0
-358 -360 0
-359 -360 0
358 359 360 0
-361 -362 0
-361 -363 0
-362 -363 0
361 362 363 0
-364 -365 0
-364 -366 0
-365 -366 0
364 365 366 0
-367 -368 0
-367 -369 0
-368 -369 0
367 368 369 0
-370 -371 0
-370 -372 0
-371 -372 0
370 371 372 0
-373 -374 0
-373 -375 0
-374 -375 0
373 374 375 0
-376 -377 0
-376 -378 0
-377 -378 0
376 377 378 0
-379 -380 0
-379 -381 0
-380 -381 0
379 380 381 0
-382 -383 0
-382 -384 0
-383 -384 0
382 383 384 0
-385 -386 0
-385 -387 0
-386 -387 0
385 386 387 0
-388 -389 0
-388 -390 0
-389 -390 0
388 389 390 0
-391 -392 0
-391 -393 0
-392 -393 0
391 392 393 0
-394 -395 0
-394 -396 0
-395 -396 0
394 395 396 0
-397 -398 0
-397 -399 0
-398 -399 0
397 398 399 0
-400 -401 0
-400 -402 0
-401 -402 0
400 401 402 0
-403 -404 0
-403 -405 0
-404 -405 0
403 404 405 0
-406 -407 0
-406 -408 0
-407 -408 0
406 407 408 0
-409 -410 0
-409 -411 0
-410 -411 0
409 410 411 0
-412 -413 0
-412 -414 0
-413 -414 0
412 413 414 0
-415 -416 0
-415 -417 0
-416 -417 0
415 416 417 0
-418 -419 0
-418 -420 0
-419 -420 0
418 419 420 0
-421 -422 0
-421 -423 0
-422 -423 0
421 422 423 0
-424 -425 0
-424 -426 0
-425 -426 0
424 425 426 0
-427 -428 0
-427 -429 0
-428 -429 0
427 428 429 0
-430 -431 0
-430 -432 0
-431 -432 0
430 431 432 0
-433 -434 0
-433 -435 0
-434 -435 0
433 434 435 0
-436 -437 0
-436 -438 0
-437 -438 0
436 437 438 0
-439 -440 0
-439 -441 0
-440 -441 0
439 440 441 0
-442 -443 0
-442 -444 0
-443 -444 0
442 443 444 0
-445 -446 0
-445 -447 0
-446 -447 0
445 446 447 0
-448 -449 0
-448 -450 0
-449 -450 0
448 449 450 0
-19 -1 0
-20 -2 0
-21 -3 0
-43 -1 0
-44 -2 0
-45 -3 0
-214 -1 0
-215 -2 0
-216 -3 0
-253 -1 0
-254 -2 0
-255 -3 0
-355 -1 0
-356 -2 0
-357 -3 0
-430 -1 0
-431 -2 0
-432 -3 0
-439 -4 0
-440 -5 0
-441 -6 0
-40 -7 0
-41 -8 0
-42 -9 0
-67 -7 0
-68 -8 0
-69 -9 0
-94 -7 0
-95 -8 0
-96 -9 0
-133 -7 0
-134 -8 0
-135 -9 0
-355 -7 0
-356 -8 0
-357 -9 0
-421 -7 0
-422 -8 0
-423 -9 0
-226 -10 0
-227 -11 0
-228 -12 0
-289 -10 0
-290 -11 0
-291 -12 0
-322 -10 0
-323 -11 0
-324 -12 0
-394 -10 0
-395 -11 0
-396 -12 0
-31 -13 0
-32 -14 0
-33 -15 0
-67 -13 0
-68 -14 0
-69 -15 0
-130 -13 0
-131 -14 0
-132 -15 0
-166 -13 0
-167 -14 0
-168 -15 0
-397 -13 0
-398 -14 0
-399 -15 0
-112 -16 0
-113 -17 0
-114 -18 0
-190 -16 0
-191 -17 0
-192 -18 0
-304 -16 0
-305 -17 0
-306 -18 0
-385 -16 0
-386 -17 0
-387 -18 0
-58 -19 0
-59 -20 0
-60 -21 0
-121 -19 0
-122 -20 0
-123 -21 0
-295 -19 0
-296 -20 0
-297 -21 0
-85 -22 0
-86 -23 0
-87 -24 0
-250 -22 0
-251 -23 0
-252 -24 0
-337 -22 0
-338 -23 0
-339 -24 0
-406 -22 0
-407 -23 0
-408 -24 0
-91 -25 0
-92 -26 0
-93 -27 0
-229 -25 0
-230 -26 0
-231 -27 0
-310 -25 0
-311 -26 0
-312 -27 0
-355 -25 0
-356 -26 0
-357 -27 0
-385 -25 0
-386 -26 0
-387 -27 0
-394 -25 0
-395 -26 0
-396 -27 0
-112 -28 0
-113 -29 0
-114 -30 0
-166 -28 0
-167 -29 0
-168 -30 0
-379 -28 0
-380 -29 0
-381 -30 0
-313 -31 0
-314 -32 0
-315 -33 0
-349 -31 0
-350 -32 0
-351 -33 0
-373 -31 0
-374 -32 0
-375 -33 0
-382 -31 0
-383 -32 0
-384 -33 0
-418 -31 0
-419 -32 0
-420 -33 0
-55 -34 0
-56 -35 0
-57 -36 0
-223 -34 0
-224 -35 0
-225 -36 0
-133 -37 0
-134 -38 0
-135 -39 0
-178 -37 0
-179 -38 0
-180 -39 0
-418 -37 0
-419 -38 0
-420 -39 0
-73 -40 0
-74 -41 0
-75 -42 0
-214 -40 0
-215 -41 0
-216 -42 0
-76 -43 0
-77 -44 0
-78 -45 0
-202 -43 0
-203 -44 0
-204 -45 0
-52 -46 0
-53 -47 0
-54 -48 0
-163 -46 0
-164 -47 0
-165 -48 0
-211 -46 0
-212 -47 0
-213 -48 0
-232 -46 0
-233 -47 0
-234 -48 0
-346 -46 0
-347 -47 0
-348 -48 0
-88 -49 0
-89 -50 0
-90 -51 0
-94 -49 0
-95 -50 0
-96 -51 0
-109 -49 0
-110 -50 0
-111 -51 0
-157 -49 0
-158 -50 0
-159 -51 0
-445 -49 0
-446 -50 0
-447 -51 0
-73 -52 0
-74 -53 0
-75 -54 0
-82 -52 0
-83 -53 0
-84 -54 0
-133 -52 0
-134 -53 0
-135 -54 0
-346 -52 0
-347 -53 0
-348 -54 0
-370 -52 0
-371 -53 0
-372 -54 0
-82 -55 0
-83 -56 0
-84 -57 0
-124 -55 0
-125 -56 0
-126 -57 0
-253 -55 0
-254 -56 0
-255 -57 0
-127 -58 0
-128 -59 0
-129 -60 0
-157 -58 0
-158 -59 0
-159 -60 0
-208 -58 0
-209 -59 0
-210 -60 0
-409 -58 0
-410 -59 0
-411 -60 0
-157 -61 0
-158 -62 0
-159 -63 0
-160 -61 0
-161 -62 0
-162 -63 0
-304 -61 0
-305 -62 0
-306 -63 0
-334 -61 0
-335 -62 0
-336 -63 0
-88 -64 0
-89 -65 0
-90 -66 0
-169 -64 0
-170 -65 0
-171 -66 0
-184 -64 0
-185 -65 0
-186 -66 0
-187 -64 0
-188 -65 0
-189 -66 0
-262 -64 0
-263 -65 0
-264 -66 0
-340 -64 0
-341 -65 0
-342 -66 0
-391 -64 0
-392 -65 0
-393 -66 0
-322 -67 0
-323 -68 0
-324 -69 0
-337 -67 0
-338 -68 0
-339 -69 0
-346 -67 0
-347 -68 0
-348 -69 0
-400 -67 0
-401 -68 0
-402 -69 0
-439 -67 0
-440 -68 0
-441 -69 0
-118 -70 0
-119 -71 0
-120 -72 0
-250 -70 0
-251 -71 0
-252 -72 0
-181 -73 0
-182 -74 0
-183 -75 0
-91 -76 0
-92 -77 0
-93 -78 0
-328 -76 0
-329 -77 0
-330 -78 0
-409 -76 0
-410 -77 0
-411 -78 0
-418 -76 0
-419 -77 0
-420 -78 0
-172 -79 0
-173 -80 0
-174 -81 0
-256 -79 0
-257 -80 0
-258 -81 0
-322 -79 0
-323 -80 0
-324 -81 0
-334 -79 0
-335 -80 0
-336 -81 0
-403 -79 0
-404 -80 0
-405 -81 0
-205 -82 0
-206 -83 0
-207 -84 0
-307 -82 0
-308 -83 0
-309 -84 0
-418 -82 0
-419 -83 0
-420 -84 0
-295 -85 0
-296 -86 0
-297 -87 0
-349 -85 0
-350 -86 0
-351 -87 0
-400 -85 0
-401 -86 0
-402 -87 0
-217 -88 0
-218 -89 0
-219 -90 0
-442 -88 0
-443 -89 0
-444 -90 0
-184 -91 0
-185 -92 0
-186 -93 0
-349 -91 0
-350 -92 0
-351 -93 0
-379 -91 0
-380 -92 0
-381 -93 0
-445 -91 0
-446 -92 0
-447 -93 0
-217 -94 0
-218 -95 0
-219 -96 0
-274 -94 0
-275 -95 0
-276 -96 0
-391 -94 0
-392 -95 0
-393 -96 0
-103 -97 0
-104 -98 0
-105 -99 0
-169 -97 0
-170 -98 0
-171 -99 0
-184 -97 0
-185 -98 0
-186 -99 0
-187 -97 0
-188 -98 0
-189 -99 0
-235 -97 0
-236 -98 0
-237 -99 0
-274 -97 0
-275 -98 0
-276 -99 0
-286 -97 0
-287 -98 0
-288 -99 0
-322 -97 0
-323 -98 0
-324 -99 0
-127 -100 0
-128 -101 0
-129 -102 0
-292 -100 0
-293 -101 0
-294 -102 0
-358 -100 0
-359 -101 0
-360 -102 0
-409 -100 0
-410 -101 0
-411 -102 0
-439 -100 0
-440 -101 0
-441 -102 0
-190 -103 0
-191 -104 0
-192 -105 0
-196 -103 0
-197 -104 0
-198 -105 0
-268 -103 0
-269 -104 0
-270 -105 0
-112 -106 0
-113 -107 0
-114 -108 0
-136 -106 0
-137 -107 0
-138 -108 0
-211 -106 0
-212 -107 0
-213 -108 0
-274 -106 0
-275 -107 0
-276 -108 0
-382 -106 0
-383 -107 0
-384 -108 0
-421 -106 0
-422 -107 0
-423 -108 0
-124 -109 0
-125 -110 0
-126 -111 0
-148 -109 0
-149 -110 0
-150 -111 0
-217 -109 0
-218 -110 0
-219 -111 0
-247 -109 0
-248 -110 0
-249 -111 0
-340 -109 0
-341 -110 0
-342 -111 0
-409 -109 0
-410 -110 0
-411 -111 0
-421 -109 0
-422 -110 0
-423 -111 0
-148 -112 0
-149 -113 0
-150 -114 0
-304 -112 0
-305 -113 0
-306 -114 0
-175 -115 0
-176 -116 0
-177 -117 0
-208 -115 0
-209 -116 0
-210 -117 0
-244 -115 0
-245 -116 0
-246 -117 0
-289 -115 0
-290 -116 0
-291 -117 0
-337 -115 0
-338 -116 0
-339 -117 0
-340 -115 0
-341 -116 0
-342 -117 0
-370 -115 0
-371 -116 0
-372 -117 0
-385 -115 0
-386 -116 0
-387 -117 0
-214 -118 0
-215 -119 0
-216 -120 0
-253 -118 0
-254 -119 0
-255 -120 0
-268 -118 0
-269 -119 0
-270 -120 0
-283 -118 0
-284 -119 0
-285 -120 0
-388 -121 0
-389 -122 0
-390 -123 0
-199 -124 0
-200 -125 0
-201 -126 0
-229 -124 0
-230 -125 0
-231 -126 0
-430 -124 0
-431 -125 0
-432 -126 0
-229 -127 0
-230 -128 0
-231 -129 0
-142 -130 0
-143 -131 0
-144 -132 0
-172 -130 0
-173 -131 0
-174 -132 0
-397 -133 0
-398 -134 0
-399 -135 0
-355 -136 0
-356 -137 0
-357 -138 0
-370 -136 0
-371 -137 0
-372 -138 0
-145 -139 0
-146 -140 0
-147 -141 0
-169 -139 0
-170 -140 0
-171 -141 0
-190 -139 0
-191 -140 0
-192 -141 0
-223 -139 0
-224 -140 0
-225 -141 0
-280 -139 0
-281 -140 0
-282 -141 0
-283 -139 0
-284 -140 0
-285 -141 0
-298 -139 0
-299 -140 0
-300 -141 0
-304 -139 0
-305 -140 0
-306 -141 0
-166 -142 0
-167 -143 0
-168 -144 0
-238 -142 0
-239 -143 0
-240 -144 0
-211 -145 0
-212 -146 0
-213 -147 0
-247 -145 0
-248 -146 0
-249 -147 0
-280 -145 0
-281 -146 0
-282 -147 0
-295 -145 0
-296 -146 0
-297 -147 0
-373 -145 0
-374 -146 0
-375 -147 0
-388 -145 0
-389 -146 0
-390 -147 0
-181 -148 0
-182 -149 0
-183 -150 0
-394 -148 0
-395 -149 0
-396 -150 0
-169 -151 0
-170 -152 0
-171 -153 0
-289 -151 0
-290 -152 0
-291 -153 0
-382 -151 0
-383 -152 0
-384 -153 0
-163 -154 0
-164 -155 0
-165 -156 0
-235 -154 0
-236 -155 0
-237 -156 0
-289 -154 0
-290 -155 0
-291 -156 0
-373 -154 0
-374 -155 0
-375 -156 0
-394 -154 0
-395 -155 0
-396 -156 0
-328 -157 0
-329 -158 0
-330 -159 0
-343 -157 0
-344 -158 0
-345 -159 0
-391 -157 0
-392 -158 0
-393 -159 0
-310 -160 0
-311 -161 0
-312 -162 0
-313 -160 0
-314 -161 0
-315 -162 0
-424 -160 0
-425 -161 0
-426 -162 0
-448 -160 0
-449 -161 0
-450 -162 0
-238 -163 0
-239 -164 0
-240 -165 0
-262 -163 0
-263 -164 0
-264 -165 0
-337 -163 0
-338 -164 0
-339 -165 0
-343 -163 0
-344 -164 0
-345 -165 0
-172 -166 0
-173 -167 0
-174 -168 0
-352 -166 0
-353 -167 0
-354 -168 0
-415 -166 0
-416 -167 0
-417 -168 0
-238 -169 0
-239 -170 0
-240 -171 0
-256 -169 0
-257 -170 0
-258 -171 0
-208 -172 0
-209 -173 0
-210 -174 0
-250 -172 0
-251 -173 0
-252 -174 0
-283 -172 0
-284 -173 0
-285 -174 0
-316 -172 0
-317 -173 0
-318 -174 0
-328 -175 0
-329 -176 0
-330 -177 0
-361 -175 0
-362 -176 0
-363 -177 0
-211 -178 0
-212 -179 0
-213 -180 0
-244 -178 0
-245 -179 0
-246 -180 0
-403 -178 0
-404 -179 0
-405 -180 0
-415 -178 0
-416 -179 0
-417 -180 0
-226 -181 0
-227 -182 0
-228 -183 0
-340 -181 0
-341 -182 0
-342 -183 0
-349 -181 0
-350 -182 0
-351 -183 0
-220 -184 0
-221 -185 0
-222 -186 0
-241 -187 0
-242 -188 0
-243 -189 0
-265 -190 0
-266 -191 0
-267 -192 0
-346 -190 0
-347 -191 0
-348 -192 0
-310 -193 0
-311 -194 0
-312 -195 0
-370 -193 0
-371 -194 0
-372 -195 0
-214 -199 0
-215 -200 0
-216 -201 0
-250 -199 0
-251 -200 0
-252 -201 0
-274 -199 0
-275 -200 0
-276 -201 0
-394 -199 0
-395 -200 0
-396 -201 0
-427 -199 0
-428 -200 0
-429 -201 0
-442 -199 0
-443 -200 0
-444 -201 0
-223 -202 0
-224 -203 0
-225 -204 0
-256 -202 0
-257 -203 0
-258 -204 0
-277 -202 0
-278 -203 0
-279 -204 0
-358 -202 0
-359 -203 0
-360 -204 0
-217 -205 0
-218 -206 0
-219 -207 0
-361 -205 0
-362 -206 0
-363 -207 0
-415 -205 0
-416 -206 0
-417 -207 0
-247 -208 0
-248 -209 0
-249 -210 0
-349 -208 0
-350 -209 0
-351 -210 0
-409 -208 0
-410 -209 0
-411 -210 0
-421 -208 0
-422 -209 0
-423 -210 0
-271 -211 0
-272 -212 0
-273 -213 0
-283 -214 0
-284 -215 0
-285 -216 0
-331 -220 0
-332 -221 0
-333 -222 0
-385 -220 0
-386 -221 0
-387 -222 0
-439 -220 0
-440 -221 0
-441 -222 0
-226 -223 0
-227 -224 0
-228 -225 0
-235 -223 0
-236 -224 0
-237 -225 0
-325 -223 0
-326 -224 0
-327 -225 0
-394 -223 0
-395 -224 0
-396 -225 0
-253 -226 0
-254 -227 0
-255 -228 0
-307 -226 0
-308 -227 0
-309 -228 0
-421 -226 0
-422 -227 0
-423 -228 0
-250 -229 0
-251 -230 0
-252 -231 0
-364 -229 0
-365 -230 0
-366 -231 0
-376 -229 0
-377 -230 0
-378 -231 0
-406 -229 0
-407 -230 0
-408 -231 0
-430 -229 0
-431 -230 0
-432 -231 0
-235 -232 0
-236 -233 0
-237 -234 0
-238 -232 0
-239 -233 0
-240 -234 0
-271 -232 0
-272 -233 0
-273 -234 0
-331 -232 0
-332 -233 0
-333 -234 0
-265 -238 0
-266 -239 0
-267 -240 0
-445 -238 0
-446 -239 0
-447 -240 0
-313 -241 0
-314 -242 0
-315 -243 0
-256 -244 0
-257 -245 0
-258 -246 0
-448 -250 0
-449 -251 0
-450 -252 0
-271 -253 0
-272 -254 0
-273 -255 0
-379 -253 0
-380 -254 0
-381 -255 0
-406 -253 0
-407 -254 0
-408 -255 0
-295 -256 0
-296 -257 0
-297 -258 0
-301 -256 0
-302 -257 0
-303 -258 0
-388 -256 0
-389 -257 0
-390 -258 0
-442 -256 0
-443 -257 0
-444 -258 0
-301 -259 0
-302 -260 0
-303 -261 0
-409 -259 0
-410 -260 0
-411 -261 0
-274 -262 0
-275 -263 0
-276 -264 0
-346 -262 0
-347 -263 0
-348 -264 0
-430 -262 0
-431 -263 0
-432 -264 0
-415 -265 0
-416 -266 0
-417 -267 0
-316 -268 0
-317 -269 0
-318 -270 0
-337 -268 0
-338 -269 0
-339 -270 0
-376 -268 0
-377 -269 0
-378 -270 0
-385 -268 0
-386 -269 0
-387 -270 0
-283 -271 0
-284 -272 0
-285 -273 0
-370 -271 0
-371 -272 0
-372 -273 0
-403 -271 0
-404 -272 0
-405 -273 0
-373 -274 0
-374 -275 0
-375 -276 0
-430 -274 0
-431 -275 0
-432 -276 0
-286 -277 0
-287 -278 0
-288 -279 0
-343 -277 0
-344 -278 0
-345 -279 0
-295 -280 0
-296 -281 0
-297 -282 0
-382 -280 0
-383 -281 0
-384 -282 0
-313 -283 0
-314 -284 0
-315 -285 0
-316 -283 0
-317 -284 0
-318 -285 0
-358 -283 0
-359 -284 0
-360 -285 0
-301 -286 0
-302 -287 0
-303 -288 0
-358 -292 0
-359 -293 0
-360 -294 0
-382 -292 0
-383 -293 0
-384 -294 0
-331 -301 0
-332 -302 0
-333 -303 0
-310 -304 0
-311 -305 0
-312 -306 0
-343 -310 0
-344 -311 0
-345 -312 0
-349 -310 0
-350 -311 0
-351 -312 0
-403 -310 0
-404 -311 0
-405 -312 0
-418 -310 0
-419 -311 0
-420 -312 0
-319 -313 0
-320 -314 0
-321 -315 0
-382 -313 0
-383 -314 0
-384 -315 0
-448 -316 0
-449 -317 0
-450 -318 0
-328 -319 0
-329 -320 0
-330 -321 0
-418 -319 0
-419 -320 0
-420 -321 0
-433 -319 0
-434 -320 0
-435 -321 0
-364 -322 0
-365 -323 0
-366 -324 0
-433 -322 0
-434 -323 0
-435 -324 0
-328 -325 0
-329 -326 0
-330 -327 0
-379 -325 0
-380 -326 0
-381 -327 0
-394 -325 0
-395 -326 0
-396 -327 0
-400 -325 0
-401 -326 0
-402 -327 0
-415 -328 0
-416 -329 0
-417 -330 0
-448 -328 0
-449 -329 0
-450 -330 0
-442 -331 0
-443 -332 0
-444 -333 0
-403 -337 0
-404 -338 0
-405 -339 0
-343 -340 0
-344 -341 0
-345 -342 0
-364 -340 0
-365 -341 0
-366 -342 0
-433 -343 0
-434 -344 0
-435 -345 0
-355 -346 0
-356 -347 0
-357 -348 0
-403 -346 0
-404 -347 0
-405 -348 0
-439 -346 0
-440 -347 0
-441 -348 0
-436 -349 0
-437 -350 0
-438 -351 0
-400 -352 0
-401 -353 0
-402 -354 0
-379 -355 0
-380 -356 0
-381 -357 0
-367 -358 0
-368 -359 0
-369 -360 0
-412 -358 0
-413 -359 0
-414 -360 0
-424 -361 0
-425 -362 0
-426 -363 0
-436 -364 0
-437 -365 0
-438 -366 0
-448 -364 0
-449 -365 0
-450 -366 0
-376 -367 0
-377 -368 0
-378 -369 0
-409 -367 0
-410 -368 0
-411 -369 0
-412 -370 0
-413 -371 0
-414 -372 0
-424 -370 0
-425 -371 0
-426 -372 0
-445 -373 0
-446 -374 0
-447 -375 0
-418 -376 0
-419 -377 0
-420 -378 0
-397 -379 0
-398 -380 0
-399 -381 0
-439 -379 0
-440 -380 0
-441 -381 0
-424 -394 0
-425 -395 0
-426 -396 0
-436 -397 0
-437 -398 0
-438 -399 0
-409 -400 0
-410 -401 0
-411 -402 0
-421 -400 0
-422 -401 0
-423 -402 0
-433 -415 0
-434 -416 0
-435 -417 0
-433 -418 0
-434 -419 0
-435 -420 0
